WARNING: for repeatability, setting FPU to use double precision
============================[ Problem Statistics ]=============================
|                                                                             |
|  Number of variables:           100                                         |
|  Number of clauses:             449                                         |
|  Parse time:                   0.00 s                                       |
|  Eliminated clauses:           0.00 Mb                                      |
|  Simplification time:          0.00 s                                       |
|                                                                             |
============================[ Search Statistics ]==============================
| Conflicts |          ORIGINAL         |          LEARNT          | Progress |
|           |    Vars  Clauses Literals |    Limit  Clauses Lit/Cl |          |
===============================================================================
|       100 |      98      446     1351 |      163      100      7 |  0.010 % |
|       250 |      98      446     1351 |      179      168      6 |  0.010 % |
===============================================================================
restarts              : 3
conflicts             : 350            (222788 /sec)
decisions             : 430            (0.00 % random) (273711 /sec)
propagations          : 7936           (5051560 /sec)
conflict literals     : 2296           (18.29 % deleted)
Memory used           : 13.00 MB
CPU time              : 0.001571 s

SATISFIABLE
